20 20
14
3 3 3 0
3 4 6 0
3 5 0 0
3 6 6 14
3 7 0 13
3 8 0 5
3 9 9 0
3 10 6 4
3 11 9 9
3 17 3 3
4 3 12 0
4 9 16 11
4 11 16 0
4 17 12 3
% time elapsed: 1.38 s
% time elapsed: 1.38 s
%%%mzn-stat: initTime=0.0003
%%%mzn-stat: solveTime=1.29271
%%%mzn-stat: solutions=55
%%%mzn-stat: variables=29
%%%mzn-stat: propagators=19
%%%mzn-stat: propagations=1740154
%%%mzn-stat: nodes=328465
%%%mzn-stat: failures=164066
%%%mzn-stat: restarts=0
%%%mzn-stat: peakDepth=44
%%%mzn-stat-end
